letting n =  10
letting blocks =  [[1, 3], [1, 4], [1, 6], [2, 6], [2, 8], [3, 6], [3, 7], [3, 9], [3, 10], [4, 4], [4, 5], [4, 9], [4, 10], [5, 2], [5, 4], [5, 6], [5, 7], [5, 9], [5, 10], [6, 2], [6, 5], [6, 10], [7, 1], [7, 2], [7, 3], [7, 4], [7, 9], [8, 8], [8, 9], [9, 1], [9, 5], [9, 6], [9, 9], [9, 10], [10, 3], [10, 10]]
